20
1 0 6
2 0 7
2 1 5
3 0 1
3 1 3
3 2 1
4 0 4
4 1 3
4 2 3
4 3 6
5 0 2
5 1 4
5 2 6
5 3 2
5 4 5
6 0 7
6 1 2
6 2 1
6 3 4
6 4 1
6 5 4
7 0 3
7 1 5
7 2 2
7 3 3
7 4 2
7 5 7
7 6 6
8 0 1
8 1 4
8 2 2
8 3 4
8 4 6
8 5 7
8 6 3
8 7 2
9 0 5
9 1 6
9 2 7
9 3 6
9 4 3
9 5 6
9 6 4
9 7 1
9 8 2
10 0 1
10 1 1
10 2 4
10 3 7
10 4 2
10 5 1
10 6 4
10 7 3
10 8 2
10 9 1
11 0 5
11 1 4
11 2 7
11 3 4
11 4 1
11 5 3
11 6 7
11 7 4
11 8 4
11 9 3
11 10 6
12 0 7
12 1 1
12 2 5
12 3 1
12 4 4
12 5 6
12 6 6
12 7 6
12 8 4
12 9 2
12 10 4
12 11 4
13 0 2
13 1 4
13 2 7
13 3 3
13 4 7
13 5 2
13 6 4
13 7 2
13 8 1
13 9 6
13 10 6
13 11 6
13 12 4
14 0 4
14 1 2
14 2 2
14 3 2
14 4 1
14 5 6
14 6 4
14 7 4
14 8 7
14 9 7
14 10 7
14 11 4
14 12 4
14 13 1
15 0 7
15 1 5
15 2 7
15 3 2
15 4 3
15 5 4
15 6 1
15 7 1
15 8 6
15 9 6
15 10 5
15 11 3
15 12 4
15 13 1
15 14 3
16 0 1
16 1 2
16 2 7
16 3 2
16 4 7
16 5 4
16 6 3
16 7 7
16 8 4
16 9 2
16 10 6
16 11 3
16 12 4
16 13 2
16 14 1
16 15 1
17 0 5
17 1 1
17 2 3
17 3 5
17 4 3
17 5 5
17 6 4
17 7 4
17 8 2
17 9 4
17 10 1
17 11 1
17 12 3
17 13 3
17 14 2
17 15 4
17 16 7
18 0 2
18 1 5
18 2 5
18 3 1
18 4 3
18 5 3
18 6 2
18 7 2
18 8 2
18 9 2
18 10 1
18 11 7
18 12 7
18 13 6
18 14 2
18 15 5
18 16 1
18 17 1
19 0 1
19 1 4
19 2 2
19 3 3
19 4 7
19 5 1
19 6 3
19 7 2
19 8 7
19 9 4
19 10 3
19 11 7
19 12 2
19 13 6
19 14 3
19 15 6
19 16 7
19 17 7
19 18 5
